
Gurobi 11.0.0 (linux64) logging started Wed Nov 29 20:34:17 2023

Set parameter LogFile to value "wlp02-p-Location-Of-Facilities-GUROBI.txt"
Gurobi Optimizer version 11.0.0 build v11.0.0rc2 (linux64 - "Ubuntu 22.04.3 LTS")

CPU model: AMD Ryzen 7 5800H with Radeon Graphics, instruction set [SSE2|AVX|AVX2]
Thread count: 8 physical cores, 16 logical processors, using up to 16 threads

Optimize a model with 1005 rows, 211800 columns and 423300 nonzeros
Model fingerprint: 0x99475b05
Variable types: 211500 continuous, 300 integer (0 binary)
Coefficient statistics:
  Matrix range     [1e+00, 1e+02]
  Objective range  [1e+00, 1e+03]
  Bounds range     [1e+00, 1e+00]
  RHS range        [1e+00, 1e+00]
Found heuristic solution: objective 217908.00000
Presolve time: 0.31s
Presolved: 1005 rows, 211800 columns, 423300 nonzeros
Variable types: 211500 continuous, 300 integer (300 binary)
Deterministic concurrent LP optimizer: primal and dual simplex
Showing primal log only...

Concurrent spin time: 0.02s

Solved with primal simplex

Root relaxation: objective 7.584063e+04, 30915 iterations, 0.68 seconds (0.68 work units)

    Nodes    |    Current Node    |     Objective Bounds      |     Work
 Expl Unexpl |  Obj  Depth IntInf | Incumbent    BestBd   Gap | It/Node Time

     0     0 75840.6342    0   20 217908.000 75840.6342  65.2%     -    1s
H    0     0                    83815.256408 75840.6342  9.51%     -    1s
H    0     0                    81997.957715 75840.6342  7.51%     -    1s
H    0     0                    80767.973198 75840.6342  6.10%     -    1s
     0     0 75863.1249    0    9 80767.9732 75863.1249  6.07%     -    2s
H    0     0                    80098.293190 75867.0558  5.28%     -    2s
H    0     0                    80062.862185 75867.0558  5.24%     -    2s
H    0     0                    80062.512185 75867.0558  5.24%     -    2s
     0     0 75867.0558    0    8 80062.5122 75867.0558  5.24%     -    2s
     0     0 75867.0558    0    8 80062.5122 75867.0558  5.24%     -    2s
H    0     0                    80051.286389 75867.0558  5.23%     -    2s
H    0     0                    79552.065836 75867.0558  4.63%     -    2s
H    0     0                    79411.367077 75867.0558  4.46%     -    2s
H    0     0                    78975.591351 75868.2805  3.93%     -    3s
     0     0 75868.2805    0    9 78975.5914 75868.2805  3.93%     -    3s
     0     0 75874.1099    0    9 78975.5914 75874.1099  3.93%     -    3s
H    0     0                    77545.810405 75874.1099  2.16%     -    3s
H    0     0                    76948.772981 75874.1099  1.40%     -    3s
H    0     0                    76034.457407 75874.1099  0.21%     -    3s
     0     0 75874.1099    0   10 76034.4574 75874.1099  0.21%     -    3s
H    0     0                    76029.521153 75874.1099  0.20%     -    4s
H    0     0                    76028.927940 75874.1099  0.20%     -    4s
     0     0 75874.1099    0   10 76028.9279 75874.1099  0.20%     -    4s
     0     0 75874.1099    0   10 76028.9279 75874.1099  0.20%     -    4s
     0     0 75874.1099    0   10 76028.9279 75874.1099  0.20%     -    4s
H    0     0                    76028.446987 75874.1099  0.20%     -    5s
H    0     0                    76025.339166 75874.1099  0.20%     -    5s
     0     0 75874.1099    0   10 76025.3392 75874.1099  0.20%     -    5s
     0     0 75874.1099    0   10 76025.3392 75874.1099  0.20%     -    5s
H    0     0                    76025.003439 75874.1099  0.20%     -    5s
     0     0 75874.1099    0   10 76025.0034 75874.1099  0.20%     -    5s
     0     0 75874.1099    0   10 76025.0034 75874.1099  0.20%     -    5s
H    0     0                    76021.715308 75874.1099  0.19%     -    6s
     0     0 75874.1099    0    9 76021.7153 75874.1099  0.19%     -    6s
     0     0 75874.1099    0    9 76021.7153 75874.1099  0.19%     -    6s
     0     0 75874.1099    0    9 76021.7153 75874.1099  0.19%     -    6s
     0     0 75874.1099    0    9 76021.7153 75874.1099  0.19%     -    7s
     0     0 75874.1099    0    9 76021.7153 75874.1099  0.19%     -    7s
     0     0 75874.1099    0   20 76021.7153 75874.1099  0.19%     -    8s
     0     0 75874.1099    0   10 76021.7153 75874.1099  0.19%     -    9s
     0     0 75874.1099    0   11 76021.7153 75874.1099  0.19%     -   10s
     0     0 75874.1099    0   10 76021.7153 75874.1099  0.19%     -   10s
     0     0 75874.1099    0   10 76021.7153 75874.1099  0.19%     -   10s
     0     0 75874.1099    0    9 76021.7153 75874.1099  0.19%     -   10s
     0     0 75874.1099    0    9 76021.7153 75874.1099  0.19%     -   10s
     0     0 75874.1099    0    9 76021.7153 75874.1099  0.19%     -   11s
     0     0 75874.1099    0    9 76021.7153 75874.1099  0.19%     -   11s
     0     0 75874.1099    0   10 76021.7153 75874.1099  0.19%     -   12s
     0     0 75874.1099    0   10 76021.7153 75874.1099  0.19%     -   12s
     0     0 75874.1099    0   10 76021.7153 75874.1099  0.19%     -   12s
     0     0 75874.1099    0   10 76021.7153 75874.1099  0.19%     -   12s
     0     0 75874.1099    0   10 76021.7153 75874.1099  0.19%     -   12s
     0     0 75874.6375    0   10 76021.7153 75874.6375  0.19%     -   12s
     0     0 75874.6375    0   10 76021.7153 75874.6375  0.19%     -   13s
     0     2 75874.6375    0   10 76021.7153 75874.6375  0.19%     -   13s
    23    32 75886.2006    5    6 76021.7153 75882.4867  0.18%  50.8   15s
H   92    97                    75942.073739 75882.6612  0.08%  29.1   16s
H  102   107                    75941.122575 75882.6612  0.08%  28.0   16s
H  110   115                    75939.076843 75882.6612  0.07%  27.1   16s
   334   313 75896.5604   41    3 75939.0768 75882.6612  0.07%  15.4   20s
H  441   374                    75937.026547 75882.6612  0.07%  15.1   21s
*  548   439              61    75936.408900 75882.6612  0.07%  14.9   23s
   731   637 75889.4301   13    2 75936.4089 75884.4109  0.07%  14.4   26s
  1054   653     cutoff   32      75936.4089 75889.0574  0.06%  16.1   31s
* 1107   646              13    75934.725152 75889.0784  0.06%  17.2   31s
  1375   331     cutoff   40      75934.7252 75897.3312  0.05%  24.1   36s

Cutting planes:
  Implied bound: 69
  MIR: 38
  Flow cover: 15
  Inf proof: 1
  Relax-and-lift: 9

Explored 1887 nodes (115028 simplex iterations) in 39.23 seconds (31.72 work units)
Thread count was 16 (of 16 available processors)

Solution count 10: 75934.7 75936.4 76021.7 ... 80768

Optimal solution found (tolerance 1.00e-04)
Best objective 7.593472515239e+04, best bound 7.593113880492e+04, gap 0.0047%
